NAME          MODEL
ROWS
 L  Caps    
 L  Caps#1  
 L  Caps#2  
 L  Caps#3  
 L  Caps#4  
 L  Caps#5  
 L  Caps#6  
 L  Caps#7  
 L  Caps#8  
 L  Caps#9  
 L  Caps#10 
 L  Caps#11 
 L  OTCaps  
 L  OTCaps#1
 L  OTCaps#2
 L  OTCaps#3
 L  OTCaps#4
 L  OTCaps#5
 L  OTCaps#6
 L  OTCaps#7
 L  OTCaps#8
 L  OTCaps#9
 L  OTCaps21
 L  OTCaps23
 E  SupplyDe
 E  Supply25
 E  Supply26
 E  Supply27
 E  Supply28
 E  Supply29
 E  Supply30
 E  Supply31
 E  Supply32
 E  Supply33
 E  Supply34
 E  Supply35
 N  Cost    
COLUMNS
    INTMARK   'MARKER'                 'INTORG'
    Producti  Caps       1             SupplyDe   1
    Producti  Cost       32           
    Product0  Caps#1     1             Supply25   1
    Product0  Cost       32           
    Product1  Caps#2     1             Supply26   1
    Product1  Cost       32           
    Product2  Caps#3     1             Supply27   1
    Product2  Cost       32           
    Product3  Caps#4     1             Supply28   1
    Product3  Cost       32           
    Product4  Caps#5     1             Supply29   1
    Product4  Cost       32           
    Product5  Caps#6     1             Supply30   1
    Product5  Cost       32           
    Product6  Caps#7     1             Supply31   1
    Product6  Cost       32           
    Product7  Caps#8     1             Supply32   1
    Product7  Cost       32           
    Product8  Caps#9     1             Supply33   1
    Product8  Cost       32           
    Product9  Caps#10    1             Supply34   1
    Product9  Cost       32           
    Produc10  Caps#11    1             Supply35   1
    Produc10  Cost       32           
    Produc11  OTCaps     1             SupplyDe   1
    Produc11  Cost       40           
    Produc12  OTCaps#1   1             Supply25   1
    Produc12  Cost       40           
    Produc13  OTCaps#2   1             Supply26   1
    Produc13  Cost       40           
    Produc14  OTCaps#3   1             Supply27   1
    Produc14  Cost       40           
    Produc15  OTCaps#4   1             Supply28   1
    Produc15  Cost       40           
    Produc16  OTCaps#5   1             Supply29   1
    Produc16  Cost       40           
    Produc17  OTCaps#6   1             Supply30   1
    Produc17  Cost       40           
    Produc18  OTCaps#7   1             Supply31   1
    Produc18  Cost       40           
    Produc19  OTCaps#8   1             Supply32   1
    Produc19  Cost       40           
    Produc20  OTCaps#9   1             Supply33   1
    Produc20  Cost       40           
    Produc22  OTCaps21   1             Supply34   1
    Produc22  Cost       40           
    Produc24  OTCaps23   1             Supply35   1
    Produc24  Cost       40           
    store(1)  SupplyDe  -1             Supply25   1
    store(1)  Cost       5            
    store(2)  Supply25  -1             Supply26   1
    store(2)  Cost       5            
    store(3)  Supply26  -1             Supply27   1
    store(3)  Cost       5            
    store(4)  Supply27  -1             Supply28   1
    store(4)  Cost       5            
    store(5)  Supply28  -1             Supply29   1
    store(5)  Cost       5            
    store(6)  Supply29  -1             Supply30   1
    store(6)  Cost       5            
    store(7)  Supply30  -1             Supply31   1
    store(7)  Cost       5            
    store(8)  Supply31  -1             Supply32   1
    store(8)  Cost       5            
    store(9)  Supply32  -1             Supply33   1
    store(9)  Cost       5            
    store(10  Supply33  -1             Supply34   1
    store(10  Cost       5            
    store(11  Supply34  -1             Supply35   1
    store(11  Cost       5            
    store(12  Supply35  -1             Cost       5
    INTMARK   'MARKER'                 'INTEND'
RHS
    RHS       Caps       30000         Caps#1     30000
    RHS       Caps#2     30000         Caps#3     30000
    RHS       Caps#4     30000         Caps#5     30000
    RHS       Caps#6     30000         Caps#7     30000
    RHS       Caps#8     30000         Caps#9     30000
    RHS       Caps#10    30000         Caps#11    30000
    RHS       OTCaps     15000         OTCaps#1   15000
    RHS       OTCaps#2   15000         OTCaps#3   15000
    RHS       OTCaps#4   15000         OTCaps#5   15000
    RHS       OTCaps#6   15000         OTCaps#7   15000
    RHS       OTCaps#8   15000         OTCaps#9   15000
    RHS       OTCaps21   15000         OTCaps23   15000
    RHS       SupplyDe   28000         Supply25   15000
    RHS       Supply26   15000         Supply27   25000
    RHS       Supply28   33000         Supply29   40000
    RHS       Supply30   45000         Supply31   45000
    RHS       Supply32   26000         Supply33   14000
    RHS       Supply34   25000         Supply35   30000
BOUNDS
ENDATA
